\ SCIP STATISTICS
\   Problem name     : neos-3611447-jijia
\   Variables        : 472 (85 binary, 0 integer, 0 implicit integer, 387 continuous)
\   Constraints      : 377
Minimize
 Obj: +1 C0387
Subject to
 R0001: +1 C0387 -5 C0388 -4 C0389 -5 C0390 -3 C0391 -1 C0392 -4 C0393 -2 C0394 -1 C0395 -3 C0396 -2 C0397
  -5 C0398 -3 C0399 -5 C0400 -1 C0401 -2 C0402 -3 C0403 -5 C0404 -3 C0405 -5 C0406 -3 C0407 -4 C0408 -3 C0409
  -1 C0410 -1 C0411 -2 C0412 -4 C0413 -5 C0414 -2 C0415 -4 C0416 -1 C0417 -5 C0418 -5 C0419 -4 C0420 -5 C0421
  -1 C0422 -5 C0423 -5 C0424 -3 C0425 -4 C0426 -1 C0427 -2 C0428 -5 C0429 -1 C0430 -5 C0431 -1 C0432 -1 C0433
  -3 C0434 -3 C0435 -1 C0436 -1 C0437 -5 C0438 -3 C0439 -5 C0440 -4 C0441 -3 C0442 -5 C0443 -4 C0444 -4 C0445
  -1 C0446 -5 C0447 -2 C0448 -4 C0449 -2 C0450 -5 C0451 -5 C0452 -2 C0453 -5 C0454 -2 C0455 -4 C0456 -4 C0457
  -2 C0458 -1 C0459 -4 C0460 -3 C0461 -1 C0462 -5 C0463 -4 C0464 -2 C0465 -2 C0466 -5 C0467 -2 C0468 -3 C0469
  -4 C0470 -2 C0471 -1 C0472 = +42
 R0002: -1 C0001 +1 C0002 <= +1.61
 R0003: -1 C0002 +1 C0003 <= +1.13
 R0004: -1 C0003 +1 C0004 -4 C0431 <= -2.51
 R0005: -1 C0004 +1 C0005 -4 C0447 <= -1.84
 R0006: -1 C0005 +1 C0006 -4 C0421 <= -1.32
 R0007: -1 C0006 +1 C0007 -4 C0433 <= -2.5
 R0008: -1 C0007 +1 C0008 -4 C0410 <= -2.44
 R0009: -1 C0008 +1 C0009 -4 C0430 <= -1.38
 R0010: -1 C0009 +1 C0010 -4 C0440 <= -2.83
 R0011: -1 C0010 +1 C0011 -4 C0432 <= -2.08
 R0012: -1 C0011 +1 C0012 -4 C0442 <= -2.08
 R0013: -1 C0012 +1 C0013 -4 C0471 <= -2.13
 R0014: -1 C0013 +1 C0014 -4 C0448 <= -2.04
 R0015: -1 C0014 +1 C0015 -4 C0451 <= -1.89
 R0016: -1 C0015 +1 C0016 -4 C0454 <= -2.37
 R0017: -1 C0016 +1 C0017 -4 C0406 <= -1.38
 R0018: -1 C0018 +1 C0019 -4 C0459 <= -2.4
 R0019: -1 C0019 +1 C0020 -4 C0433 <= -1.68
 R0020: -1 C0020 +1 C0021 -4 C0395 <= -1.41
 R0021: -1 C0021 +1 C0022 -4 C0421 <= -2.48
 R0022: -1 C0022 +1 C0023 -4 C0423 <= -1.85
 R0023: -1 C0023 +1 C0024 -4 C0388 <= -1.19
 R0024: -1 C0024 +1 C0025 -4 C0472 <= -2.38
 R0025: -1 C0025 +1 C0026 -4 C0431 <= -1.03
 R0026: -1 C0026 +1 C0027 -4 C0452 <= -2.16
 R0027: -1 C0027 +1 C0028 -4 C0444 <= -2.95
 R0028: -1 C0028 +1 C0029 -4 C0462 <= -2.99
 R0029: -1 C0029 +1 C0030 -4 C0436 <= -1.95
 R0030: -1 C0030 +1 C0031 <= +1.82
 R0031: -1 C0031 +1 C0032 -4 C0432 <= -1.11
 R0032: -1 C0032 +1 C0033 <= +1.58
 R0033: -1 C0033 +1 C0034 -4 C0439 <= -2.85
 R0034: -1 C0034 +1 C0035 <= +2.53
 R0035: -1 C0035 +1 C0036 -4 C0418 <= -2.41
 R0036: -1 C0036 +1 C0037 <= +1.44
 R0037: -1 C0037 +1 C0038 -4 C0435 <= -2.76
 R0038: -1 C0039 +1 C0040 <= +1.67
 R0039: -1 C0040 +1 C0041 -4 C0395 <= -1.27
 R0040: -1 C0041 +1 C0042 -4 C0434 <= -1.79
 R0041: -1 C0042 +1 C0043 -4 C0446 <= -1.64
 R0042: -1 C0043 +1 C0044 -4 C0413 <= -1.46
 R0043: -1 C0044 +1 C0045 -4 C0449 <= -2.37
 R0044: -1 C0045 +1 C0046 -4 C0461 <= -2.49
 R0045: -1 C0046 +1 C0047 -4 C0411 <= -1.01
 R0046: -1 C0047 +1 C0048 -4 C0454 <= -1.79
 R0047: -1 C0048 +1 C0049 -4 C0427 <= -2.75
 R0048: -1 C0049 +1 C0050 -4 C0389 <= -2.48
 R0049: -1 C0050 +1 C0051 -4 C0444 <= -2.21
 R0050: -1 C0051 +1 C0052 -4 C0388 <= -2.44
 R0051: -1 C0052 +1 C0053 -4 C0470 <= -2.96
 R0052: -1 C0053 +1 C0054 -4 C0458 <= -2.31
 R0053: -1 C0054 +1 C0055 -4 C0420 <= -1.51
 R0054: -1 C0056 +1 C0057 -4 C0411 <= -1.26
 R0055: -1 C0057 +1 C0058 <= +2.82
 R0056: -1 C0058 +1 C0059 -4 C0397 <= -2.27
 R0057: -1 C0059 +1 C0060 <= +2.89
 R0058: -1 C0060 +1 C0061 -4 C0398 <= -2.56
 R0059: -1 C0061 +1 C0062 <= +1.49
 R0060: -1 C0062 +1 C0063 -4 C0456 <= -2.77
 R0061: -1 C0063 +1 C0064 -4 C0414 <= -1.6
 R0062: -1 C0064 +1 C0065 -4 C0392 <= -2.42
 R0063: -1 C0065 +1 C0066 -4 C0419 <= -1.95
 R0064: -1 C0066 +1 C0067 -4 C0403 <= -2.18
 R0065: -1 C0067 +1 C0068 -4 C0405 <= -2.58
 R0066: -1 C0068 +1 C0069 <= +1.35
 R0067: -1 C0069 +1 C0070 -4 C0422 <= -2.67
 R0068: -1 C0070 +1 C0071 -4 C0418 <= -2.96
 R0069: -1 C0071 +1 C0072 -4 C0461 <= -1.15
 R0070: -1 C0072 +1 C0073 -4 C0430 <= -1.08
 R0071: -1 C0073 +1 C0074 <= +1.87
 R0072: -1 C0074 +1 C0075 -4 C0428 <= -2.27
 R0073: -1 C0075 +1 C0076 -4 C0466 <= -1.31
 R0074: -1 C0076 +1 C0077 -4 C0464 <= -2.75
 R0075: -1 C0078 +1 C0079 <= +2.36
 R0076: -1 C0079 +1 C0080 -4 C0460 <= -2.37
 R0077: -1 C0080 +1 C0081 -4 C0401 <= -1.02
 R0078: -1 C0081 +1 C0082 -4 C0457 <= -1.43
 R0079: -1 C0082 +1 C0083 -4 C0400 <= -2.07
 R0080: -1 C0083 +1 C0084 -4 C0388 <= -2.12
 R0081: -1 C0084 +1 C0085 -4 C0414 <= -2.56
 R0082: -1 C0085 +1 C0086 <= +2.13
 R0083: -1 C0086 +1 C0087 -4 C0415 <= -2.32
 R0084: -1 C0087 +1 C0088 -4 C0397 <= -1.74
 R0085: -1 C0088 +1 C0089 -4 C0398 <= -1.41
 R0086: -1 C0089 +1 C0090 -4 C0468 <= -1.32
 R0087: -1 C0090 +1 C0091 -4 C0430 <= -2.44
 R0088: -1 C0091 +1 C0092 -4 C0449 <= -1.2
 R0089: -1 C0092 +1 C0093 -4 C0431 <= -1.56
 R0090: -1 C0093 +1 C0094 -4 C0446 <= -2.06
 R0091: -1 C0095 +1 C0096 <= +2.75
 R0092: -1 C0096 +1 C0097 -4 C0438 <= -1.45
 R0093: -1 C0097 +1 C0098 <= +1.31
 R0094: -1 C0098 +1 C0099 -4 C0455 <= -2.96
 R0095: -1 C0099 +1 C0100 -4 C0400 <= -2.79
 R0096: -1 C0100 +1 C0101 -4 C0453 <= -1.19
 R0097: -1 C0101 +1 C0102 -4 C0389 <= -1.81
 R0098: -1 C0102 +1 C0103 -4 C0396 <= -1.08
 R0099: -1 C0103 +1 C0104 -4 C0408 <= -1.45
 R0100: -1 C0104 +1 C0105 -4 C0451 <= -1.73
 R0101: -1 C0105 +1 C0106 -4 C0458 <= -1.78
 R0102: -1 C0106 +1 C0107 -4 C0472 <= -2.22
 R0103: -1 C0107 +1 C0108 -4 C0435 <= -1.78
 R0104: -1 C0108 +1 C0109 -4 C0430 <= -1.32
 R0105: -1 C0109 +1 C0110 -4 C0468 <= -2.32
 R0106: -1 C0110 +1 C0111 <= +2
 R0107: -1 C0111 +1 C0112 -4 C0470 <= -1.65
 R0108: -1 C0112 +1 C0113 -4 C0460 <= -2.83
 R0109: -1 C0113 +1 C0114 -4 C0469 <= -1.62
 R0110: -1 C0115 +1 C0116 <= +1.78
 R0111: -1 C0116 +1 C0117 -4 C0442 <= -1.09
 R0112: -1 C0117 +1 C0118 -4 C0454 <= -2.61
 R0113: -1 C0118 +1 C0119 -4 C0444 <= -2.54
 R0114: -1 C0119 +1 C0120 -4 C0414 <= -2.78
 R0115: -1 C0120 +1 C0121 <= +1.56
 R0116: -1 C0121 +1 C0122 -4 C0448 <= -1.78
 R0117: -1 C0122 +1 C0123 -4 C0455 <= -1.66
 R0118: -1 C0123 +1 C0124 -4 C0433 <= -2.01
 R0119: -1 C0124 +1 C0125 -4 C0447 <= -2.52
 R0120: -1 C0125 +1 C0126 -4 C0428 <= -2.77
 R0121: -1 C0126 +1 C0127 -4 C0438 <= -1.16
 R0122: -1 C0127 +1 C0128 -4 C0470 <= -1.53
 R0123: -1 C0128 +1 C0129 -4 C0423 <= -1.12
 R0124: -1 C0129 +1 C0130 -4 C0461 <= -2.1
 R0125: -1 C0130 +1 C0131 -4 C0434 <= -2.87
 R0126: -1 C0131 +1 C0132 <= +2.03
 R0127: -1 C0132 +1 C0133 -4 C0398 <= -1.45
 R0128: -1 C0133 +1 C0134 -4 C0435 <= -2.43
 R0129: -1 C0134 +1 C0135 -4 C0429 <= -2.8
 R0130: -1 C0135 +1 C0136 -4 C0412 <= -2.15
 R0131: -1 C0136 +1 C0137 -4 C0465 <= -1.2
 R0132: -1 C0138 +1 C0139 <= +1.45
 R0133: -1 C0139 +1 C0140 -4 C0431 <= -1.03
 R0134: -1 C0140 +1 C0141 -4 C0452 <= -1.72
 R0135: -1 C0141 +1 C0142 -4 C0436 <= -2.29
 R0136: -1 C0142 +1 C0143 -4 C0440 <= -1.27
 R0137: -1 C0143 +1 C0144 -4 C0470 <= -1.69
 R0138: -1 C0144 +1 C0145 -4 C0451 <= -2.62
 R0139: -1 C0145 +1 C0146 -4 C0409 <= -1.67
 R0140: -1 C0146 +1 C0147 -4 C0471 <= -1.02
 R0141: -1 C0147 +1 C0148 -4 C0414 <= -2.74
 R0142: -1 C0148 +1 C0149 -4 C0413 <= -1.18
 R0143: -1 C0149 +1 C0150 -4 C0420 <= -2.27
 R0144: -1 C0150 +1 C0151 -4 C0426 <= -2.31
 R0145: -1 C0151 +1 C0152 -4 C0443 <= -1.11
 R0146: -1 C0152 +1 C0153 -4 C0444 <= -1.23
 R0147: -1 C0153 +1 C0154 -4 C0456 <= -1.48
 R0148: -1 C0154 +1 C0155 -4 C0468 <= -1.91
 R0149: -1 C0156 +1 C0157 <= +1.35
 R0150: -1 C0157 +1 C0158 -4 C0472 <= -1.07
 R0151: -1 C0158 +1 C0159 -4 C0464 <= -1.62
 R0152: -1 C0159 +1 C0160 -4 C0471 <= -2.63
 R0153: -1 C0160 +1 C0161 -4 C0468 <= -1.9
 R0154: -1 C0161 +1 C0162 -4 C0426 <= -2.06
 R0155: -1 C0162 +1 C0163 -4 C0467 <= -1.83
 R0156: -1 C0163 +1 C0164 -4 C0401 <= -1.5
 R0157: -1 C0164 +1 C0165 <= +1.78
 R0158: -1 C0165 +1 C0166 <= +2.54
 R0159: -1 C0166 +1 C0167 -4 C0465 <= -2.77
 R0160: -1 C0167 +1 C0168 -4 C0417 <= -1.23
 R0161: -1 C0168 +1 C0169 <= +2.39
 R0162: -1 C0169 +1 C0170 <= +1.47
 R0163: -1 C0170 +1 C0171 -4 C0451 <= -2.3
 R0164: -1 C0171 +1 C0172 -4 C0412 <= -1.55
 R0165: -1 C0172 +1 C0173 -4 C0423 <= -2
 R0166: -1 C0173 +1 C0174 -4 C0425 <= -2.11
 R0167: -1 C0175 +1 C0176 -4 C0396 <= -2.38
 R0168: -1 C0176 +1 C0177 -4 C0402 <= -1.5
 R0169: -1 C0177 +1 C0178 -4 C0462 <= -2.68
 R0170: -1 C0178 +1 C0179 -4 C0407 <= -2.62
 R0171: -1 C0179 +1 C0180 -4 C0456 <= -1.19
 R0172: -1 C0180 +1 C0181 -4 C0416 <= -2.54
 R0173: -1 C0181 +1 C0182 -4 C0420 <= -1.97
 R0174: -1 C0182 +1 C0183 -4 C0395 <= -1.64
 R0175: -1 C0183 +1 C0184 -4 C0406 <= -1.35
 R0176: -1 C0184 +1 C0185 <= +2.78
 R0177: -1 C0185 +1 C0186 -4 C0412 <= -1.6
 R0178: -1 C0186 +1 C0187 <= +1.66
 R0179: -1 C0187 +1 C0188 <= +1.54
 R0180: -1 C0017 +1 C0206 <= +0
 R0181: -1 C0038 +1 C0228 <= +0
 R0182: -1 C0055 +1 C0246 <= +0
 R0183: -1 C0077 +1 C0269 <= +0
 R0184: -1 C0094 +1 C0287 <= +0
 R0185: -1 C0114 +1 C0308 <= +0
 R0186: -1 C0137 +1 C0332 <= +0
 R0187: -1 C0155 +1 C0351 <= +0
 R0188: -1 C0174 +1 C0371 <= +0
 R0189: -1 C0188 +1 C0386 <= +0
 R0190: +1 C0189 -1 C0190 <= +1.46
 R0191: +1 C0190 -1 C0191 <= +1.61
 R0192: +1 C0191 -1 C0192 -4 C0431 <= -2.87
 R0193: +1 C0192 -1 C0193 -4 C0447 <= -2.51
 R0194: +1 C0193 -1 C0194 -4 C0421 <= -1.84
 R0195: +1 C0194 -1 C0195 -4 C0433 <= -1.32
 R0196: +1 C0195 -1 C0196 -4 C0410 <= -2.5
 R0197: +1 C0196 -1 C0197 -4 C0430 <= -2.44
 R0198: +1 C0197 -1 C0198 -4 C0440 <= -1.38
 R0199: +1 C0198 -1 C0199 -4 C0432 <= -2.83
 R0200: +1 C0199 -1 C0200 -4 C0442 <= -2.08
 R0201: +1 C0200 -1 C0201 -4 C0471 <= -2.08
 R0202: +1 C0201 -1 C0202 -4 C0448 <= -2.13
 R0203: +1 C0202 -1 C0203 -4 C0451 <= -2.04
 R0204: +1 C0203 -1 C0204 -4 C0454 <= -1.89
 R0205: +1 C0204 -1 C0205 -4 C0406 <= -2.37
 R0206: +1 C0205 -1 C0206 -4 C0465 <= -1.38
 R0207: +1 C0207 -1 C0208 -4 C0459 <= -1.28
 R0208: +1 C0208 -1 C0209 -4 C0433 <= -2.4
 R0209: +1 C0209 -1 C0210 -4 C0395 <= -1.68
 R0210: +1 C0210 -1 C0211 -4 C0421 <= -1.41
 R0211: +1 C0211 -1 C0212 -4 C0423 <= -2.48
 R0212: +1 C0212 -1 C0213 -4 C0388 <= -1.85
 R0213: +1 C0213 -1 C0214 -4 C0472 <= -1.19
 R0214: +1 C0214 -1 C0215 -4 C0431 <= -2.38
 R0215: +1 C0215 -1 C0216 -4 C0452 <= -1.03
 R0216: +1 C0216 -1 C0217 -4 C0444 <= -2.16
 R0217: +1 C0217 -1 C0218 -4 C0462 <= -2.95
 R0218: +1 C0218 -1 C0219 -4 C0436 <= -2.99
 R0219: +1 C0219 -1 C0220 <= +2.05
 R0220: +1 C0220 -1 C0221 -4 C0432 <= -2.18
 R0221: +1 C0221 -1 C0222 <= +2.89
 R0222: +1 C0222 -1 C0223 -4 C0439 <= -2.42
 R0223: +1 C0223 -1 C0224 <= +1.15
 R0224: +1 C0224 -1 C0225 -4 C0418 <= -1.47
 R0225: +1 C0225 -1 C0226 <= +1.59
 R0226: +1 C0226 -1 C0227 -4 C0435 <= -2.56
 R0227: +1 C0227 -1 C0228 -4 C0396 <= -2.76
 R0228: +1 C0229 -1 C0230 <= +1.49
 R0229: +1 C0230 -1 C0231 -4 C0395 <= -2.33
 R0230: +1 C0231 -1 C0232 -4 C0434 <= -1.27
 R0231: +1 C0232 -1 C0233 -4 C0446 <= -1.79
 R0232: +1 C0233 -1 C0234 -4 C0413 <= -1.64
 R0233: +1 C0234 -1 C0235 -4 C0449 <= -1.46
 R0234: +1 C0235 -1 C0236 -4 C0461 <= -2.37
 R0235: +1 C0236 -1 C0237 -4 C0411 <= -2.49
 R0236: +1 C0237 -1 C0238 -4 C0454 <= -1.01
 R0237: +1 C0238 -1 C0239 -4 C0427 <= -1.79
 R0238: +1 C0239 -1 C0240 -4 C0389 <= -2.75
 R0239: +1 C0240 -1 C0241 -4 C0444 <= -2.48
 R0240: +1 C0241 -1 C0242 -4 C0388 <= -2.21
 R0241: +1 C0242 -1 C0243 -4 C0470 <= -2.44
 R0242: +1 C0243 -1 C0244 -4 C0458 <= -2.96
 R0243: +1 C0244 -1 C0245 -4 C0420 <= -2.31
 R0244: +1 C0245 -1 C0246 -4 C0436 <= -1.51
 R0245: +1 C0247 -1 C0248 -4 C0411 <= -1.32
 R0246: +1 C0248 -1 C0249 <= +2.74
 R0247: +1 C0249 -1 C0250 -4 C0397 <= -1.18
 R0248: +1 C0250 -1 C0251 <= +1.73
 R0249: +1 C0251 -1 C0252 -4 C0398 <= -1.11
 R0250: +1 C0252 -1 C0253 <= +1.44
 R0251: +1 C0253 -1 C0254 -4 C0456 <= -2.51
 R0252: +1 C0254 -1 C0255 -4 C0414 <= -2.77
 R0253: +1 C0255 -1 C0256 -4 C0392 <= -1.6
 R0254: +1 C0256 -1 C0257 -4 C0419 <= -2.42
 R0255: +1 C0257 -1 C0258 -4 C0403 <= -1.95
 R0256: +1 C0258 -1 C0259 -4 C0405 <= -2.18
 R0257: +1 C0259 -1 C0260 <= +1.42
 R0258: +1 C0260 -1 C0261 -4 C0422 <= -2.65
 R0259: +1 C0261 -1 C0262 -4 C0418 <= -2.67
 R0260: +1 C0262 -1 C0263 -4 C0461 <= -2.96
 R0261: +1 C0263 -1 C0264 -4 C0430 <= -1.15
 R0262: +1 C0264 -1 C0265 <= +2.92
 R0263: +1 C0265 -1 C0266 -4 C0428 <= -2.13
 R0264: +1 C0266 -1 C0267 -4 C0466 <= -2.27
 R0265: +1 C0267 -1 C0268 -4 C0464 <= -1.31
 R0266: +1 C0268 -1 C0269 -4 C0408 <= -2.75
 R0267: +1 C0270 -1 C0271 <= +2.23
 R0268: +1 C0271 -1 C0272 -4 C0460 <= -1.64
 R0269: +1 C0272 -1 C0273 -4 C0401 <= -2.37
 R0270: +1 C0273 -1 C0274 -4 C0457 <= -1.02
 R0271: +1 C0274 -1 C0275 -4 C0400 <= -1.43
 R0272: +1 C0275 -1 C0276 -4 C0388 <= -2.07
 R0273: +1 C0276 -1 C0277 -4 C0414 <= -2.12
 R0274: +1 C0277 -1 C0278 <= +1.44
 R0275: +1 C0278 -1 C0279 -4 C0415 <= -1.87
 R0276: +1 C0279 -1 C0280 -4 C0397 <= -2.32
 R0277: +1 C0280 -1 C0281 -4 C0398 <= -1.74
 R0278: +1 C0281 -1 C0282 -4 C0468 <= -1.41
 R0279: +1 C0282 -1 C0283 -4 C0430 <= -1.32
 R0280: +1 C0283 -1 C0284 -4 C0449 <= -2.44
 R0281: +1 C0284 -1 C0285 -4 C0431 <= -1.2
 R0282: +1 C0285 -1 C0286 -4 C0446 <= -1.56
 R0283: +1 C0286 -1 C0287 -4 C0420 <= -2.06
 R0284: +1 C0288 -1 C0289 <= +1.29
 R0285: +1 C0289 -1 C0290 -4 C0438 <= -1.25
 R0286: +1 C0290 -1 C0291 <= +2.55
 R0287: +1 C0291 -1 C0292 -4 C0455 <= -2.69
 R0288: +1 C0292 -1 C0293 -4 C0400 <= -2.96
 R0289: +1 C0293 -1 C0294 -4 C0453 <= -2.79
 R0290: +1 C0294 -1 C0295 -4 C0389 <= -1.19
 R0291: +1 C0295 -1 C0296 -4 C0396 <= -1.81
 R0292: +1 C0296 -1 C0297 -4 C0408 <= -1.08
 R0293: +1 C0297 -1 C0298 -4 C0451 <= -1.45
 R0294: +1 C0298 -1 C0299 -4 C0458 <= -1.73
 R0295: +1 C0299 -1 C0300 -4 C0472 <= -1.78
 R0296: +1 C0300 -1 C0301 -4 C0435 <= -2.22
 R0297: +1 C0301 -1 C0302 -4 C0430 <= -1.78
 R0298: +1 C0302 -1 C0303 -4 C0468 <= -1.32
 R0299: +1 C0303 -1 C0304 <= +1.68
 R0300: +1 C0304 -1 C0305 -4 C0470 <= -2
 R0301: +1 C0305 -1 C0306 -4 C0460 <= -1.65
 R0302: +1 C0306 -1 C0307 -4 C0469 <= -2.83
 R0303: +1 C0307 -1 C0308 -4 C0423 <= -1.62
 R0304: +1 C0309 -1 C0310 <= +2.16
 R0305: +1 C0310 -1 C0311 -4 C0442 <= -2.22
 R0306: +1 C0311 -1 C0312 -4 C0454 <= -1.09
 R0307: +1 C0312 -1 C0313 -4 C0444 <= -2.61
 R0308: +1 C0313 -1 C0314 -4 C0414 <= -2.54
 R0309: +1 C0314 -1 C0315 <= +1.22
 R0310: +1 C0315 -1 C0316 -4 C0448 <= -2.44
 R0311: +1 C0316 -1 C0317 -4 C0455 <= -1.78
 R0312: +1 C0317 -1 C0318 -4 C0433 <= -1.66
 R0313: +1 C0318 -1 C0319 -4 C0447 <= -2.01
 R0314: +1 C0319 -1 C0320 -4 C0428 <= -2.52
 R0315: +1 C0320 -1 C0321 -4 C0438 <= -2.77
 R0316: +1 C0321 -1 C0322 -4 C0470 <= -1.16
 R0317: +1 C0322 -1 C0323 -4 C0423 <= -1.53
 R0318: +1 C0323 -1 C0324 -4 C0461 <= -1.12
 R0319: +1 C0324 -1 C0325 -4 C0434 <= -2.1
 R0320: +1 C0325 -1 C0326 <= +1.13
 R0321: +1 C0326 -1 C0327 -4 C0398 <= -1.97
 R0322: +1 C0327 -1 C0328 -4 C0435 <= -1.45
 R0323: +1 C0328 -1 C0329 -4 C0429 <= -2.43
 R0324: +1 C0329 -1 C0330 -4 C0412 <= -2.8
 R0325: +1 C0330 -1 C0331 -4 C0465 <= -2.15
 R0326: +1 C0331 -1 C0332 <= +2.8
 R0327: +1 C0333 -1 C0334 <= +2.43
 R0328: +1 C0334 -1 C0335 -4 C0431 <= -2.55
 R0329: +1 C0335 -1 C0336 -4 C0452 <= -1.03
 R0330: +1 C0336 -1 C0337 -4 C0436 <= -1.72
 R0331: +1 C0337 -1 C0338 -4 C0440 <= -2.29
 R0332: +1 C0338 -1 C0339 -4 C0470 <= -1.27
 R0333: +1 C0339 -1 C0340 -4 C0451 <= -1.69
 R0334: +1 C0340 -1 C0341 -4 C0409 <= -2.62
 R0335: +1 C0341 -1 C0342 -4 C0471 <= -1.67
 R0336: +1 C0342 -1 C0343 -4 C0414 <= -1.02
 R0337: +1 C0343 -1 C0344 -4 C0413 <= -2.74
 R0338: +1 C0344 -1 C0345 -4 C0420 <= -1.18
 R0339: +1 C0345 -1 C0346 -4 C0426 <= -2.27
 R0340: +1 C0346 -1 C0347 -4 C0443 <= -2.31
 R0341: +1 C0347 -1 C0348 -4 C0444 <= -1.11
 R0342: +1 C0348 -1 C0349 -4 C0456 <= -1.23
 R0343: +1 C0349 -1 C0350 -4 C0468 <= -1.48
 R0344: +1 C0350 -1 C0351 -4 C0407 <= -1.91
 R0345: +1 C0352 -1 C0353 <= +1.68
 R0346: +1 C0353 -1 C0354 -4 C0472 <= -2.65
 R0347: +1 C0354 -1 C0355 -4 C0464 <= -1.07
 R0348: +1 C0355 -1 C0356 -4 C0471 <= -1.62
 R0349: +1 C0356 -1 C0357 -4 C0468 <= -2.63
 R0350: +1 C0357 -1 C0358 -4 C0426 <= -1.9
 R0351: +1 C0358 -1 C0359 -4 C0467 <= -2.06
 R0352: +1 C0359 -1 C0360 -4 C0401 <= -1.83
 R0353: +1 C0360 -1 C0361 <= +2.5
 R0354: +1 C0361 -1 C0362 <= +1.78
 R0355: +1 C0362 -1 C0363 -4 C0465 <= -1.46
 R0356: +1 C0363 -1 C0364 -4 C0417 <= -2.77
 R0357: +1 C0364 -1 C0365 <= +2.77
 R0358: +1 C0365 -1 C0366 <= +2.39
 R0359: +1 C0366 -1 C0367 -4 C0451 <= -2.53
 R0360: +1 C0367 -1 C0368 -4 C0412 <= -2.3
 R0361: +1 C0368 -1 C0369 -4 C0423 <= -1.55
 R0362: +1 C0369 -1 C0370 -4 C0425 <= -2
 R0363: +1 C0370 -1 C0371 -4 C0436 <= -2.11
 R0364: +1 C0372 -1 C0373 -4 C0396 <= -1.41
 R0365: +1 C0373 -1 C0374 -4 C0402 <= -2.38
 R0366: +1 C0374 -1 C0375 -4 C0462 <= -1.5
 R0367: +1 C0375 -1 C0376 -4 C0407 <= -2.68
 R0368: +1 C0376 -1 C0377 -4 C0456 <= -2.62
 R0369: +1 C0377 -1 C0378 -4 C0416 <= -1.19
 R0370: +1 C0378 -1 C0379 -4 C0420 <= -2.54
 R0371: +1 C0379 -1 C0380 -4 C0395 <= -1.97
 R0372: +1 C0380 -1 C0381 -4 C0406 <= -1.64
 R0373: +1 C0381 -1 C0382 <= +2.65
 R0374: +1 C0382 -1 C0383 -4 C0412 <= -1.22
 R0375: +1 C0383 -1 C0384 <= +2.4
 R0376: +1 C0384 -1 C0385 <= +1.66
 R0377: +1 C0385 -1 C0386 -4 C0468 <= -2.46
Bounds
 0 <= C0471 <= 1
 0 <= C0388 <= 1
 0 <= C0389 <= 1
 0 <= C0390 <= 1
 0 <= C0391 <= 1
 0 <= C0392 <= 1
 0 <= C0393 <= 1
 0 <= C0394 <= 1
 0 <= C0395 <= 1
 0 <= C0396 <= 1
 0 <= C0397 <= 1
 0 <= C0398 <= 1
 0 <= C0399 <= 1
 0 <= C0400 <= 1
 0 <= C0401 <= 1
 0 <= C0402 <= 1
 0 <= C0403 <= 1
 0 <= C0404 <= 1
 0 <= C0405 <= 1
 0 <= C0406 <= 1
 0 <= C0407 <= 1
 0 <= C0408 <= 1
 0 <= C0409 <= 1
 0 <= C0410 <= 1
 0 <= C0411 <= 1
 0 <= C0412 <= 1
 0 <= C0413 <= 1
 0 <= C0414 <= 1
 0 <= C0415 <= 1
 0 <= C0416 <= 1
 0 <= C0417 <= 1
 0 <= C0418 <= 1
 0 <= C0419 <= 1
 0 <= C0420 <= 1
 0 <= C0421 <= 1
 0 <= C0422 <= 1
 0 <= C0423 <= 1
 0 <= C0424 <= 1
 0 <= C0425 <= 1
 0 <= C0426 <= 1
 0 <= C0427 <= 1
 0 <= C0428 <= 1
 0 <= C0429 <= 1
 0 <= C0430 <= 1
 0 <= C0431 <= 1
 0 <= C0432 <= 1
 0 <= C0433 <= 1
 0 <= C0434 <= 1
 0 <= C0435 <= 1
 0 <= C0436 <= 1
 0 <= C0437 <= 1
 0 <= C0438 <= 1
 0 <= C0439 <= 1
 0 <= C0440 <= 1
 0 <= C0441 <= 1
 0 <= C0442 <= 1
 0 <= C0443 <= 1
 0 <= C0444 <= 1
 0 <= C0445 <= 1
 0 <= C0446 <= 1
 0 <= C0447 <= 1
 0 <= C0448 <= 1
 0 <= C0449 <= 1
 0 <= C0450 <= 1
 0 <= C0451 <= 1
 0 <= C0452 <= 1
 0 <= C0453 <= 1
 0 <= C0454 <= 1
 0 <= C0455 <= 1
 0 <= C0456 <= 1
 0 <= C0457 <= 1
 0 <= C0458 <= 1
 0 <= C0459 <= 1
 0 <= C0460 <= 1
 0 <= C0461 <= 1
 0 <= C0462 <= 1
 0 <= C0463 <= 1
 0 <= C0464 <= 1
 0 <= C0465 <= 1
 0 <= C0466 <= 1
 0 <= C0467 <= 1
 0 <= C0468 <= 1
 0 <= C0469 <= 1
 0 <= C0470 <= 1
 0 <= C0472 <= 1
 0 <= C0086 <= 12.13
 0 <= C0087 <= 11.68
 0 <= C0088 <= 12.26
 0 <= C0089 <= 12.59
 0 <= C0090 <= 12.68
 0 <= C0091 <= 11.56
 0 <= C0092 <= 12.8
 0 <= C0093 <= 12.44
 0 <= C0094 <= 11.94
 0 <= C0095 <= 1.29
 0 <= C0096 <= 12.75
 0 <= C0097 <= 12.55
 0 <= C0098 <= 11.31
 0 <= C0099 <= 11.04
 0 <= C0100 <= 11.21
 0 <= C0101 <= 12.81
 0 <= C0102 <= 12.19
 0 <= C0103 <= 12.92
 0 <= C0104 <= 12.55
 0 <= C0105 <= 12.27
 0 <= C0106 <= 12.22
 0 <= C0107 <= 11.78
 0 <= C0108 <= 12.22
 0 <= C0109 <= 12.68
 0 <= C0110 <= 11.68
 0 <= C0111 <= 12
 0 <= C0112 <= 12.35
 0 <= C0113 <= 11.17
 0 <= C0114 <= 12.38
 0 <= C0115 <= 2.16
 0 <= C0116 <= 11.78
 0 <= C0117 <= 12.91
 0 <= C0118 <= 11.39
 0 <= C0119 <= 11.46
 0 <= C0120 <= 11.22
 0 <= C0121 <= 11.56
 0 <= C0122 <= 12.22
 0 <= C0123 <= 12.34
 0 <= C0124 <= 11.99
 0 <= C0125 <= 11.48
 0 <= C0126 <= 11.23
 0 <= C0127 <= 12.84
 0 <= C0128 <= 12.47
 0 <= C0129 <= 12.88
 0 <= C0130 <= 11.9
 0 <= C0131 <= 11.13
 0 <= C0132 <= 12.03
 0 <= C0133 <= 12.55
 0 <= C0134 <= 11.57
 0 <= C0135 <= 11.2
 0 <= C0136 <= 11.85
 0 <= C0137 <= 12.8
 0 <= C0138 <= 2.43
 0 <= C0139 <= 11.45
 0 <= C0140 <= 12.97
 0 <= C0141 <= 12.28
 0 <= C0142 <= 11.71
 0 <= C0143 <= 12.73
 0 <= C0144 <= 12.31
 0 <= C0145 <= 11.38
 0 <= C0146 <= 12.33
 0 <= C0147 <= 12.98
 0 <= C0148 <= 11.26
 0 <= C0149 <= 12.82
 0 <= C0150 <= 11.73
 0 <= C0151 <= 11.69
 0 <= C0152 <= 12.89
 0 <= C0153 <= 12.77
 0 <= C0154 <= 12.52
 0 <= C0155 <= 12.09
 0 <= C0156 <= 1.68
 0 <= C0157 <= 11.35
 0 <= C0158 <= 12.93
 0 <= C0159 <= 12.38
 0 <= C0160 <= 11.37
 0 <= C0161 <= 12.1
 0 <= C0162 <= 11.94
 0 <= C0163 <= 12.17
 0 <= C0164 <= 12.5
 0 <= C0165 <= 11.78
 0 <= C0166 <= 12.54
 0 <= C0167 <= 11.23
 0 <= C0168 <= 12.77
 0 <= C0169 <= 12.39
 0 <= C0170 <= 11.47
 0 <= C0171 <= 11.7
 0 <= C0172 <= 12.45
 0 <= C0173 <= 12
 0 <= C0174 <= 11.89
 0 <= C0175 <= 2.59
 0 <= C0176 <= 11.62
 0 <= C0177 <= 12.5
 0 <= C0178 <= 11.32
 0 <= C0179 <= 11.38
 0 <= C0180 <= 12.81
 0 <= C0181 <= 11.46
 0 <= C0182 <= 12.03
 0 <= C0183 <= 12.36
 0 <= C0184 <= 12.65
 0 <= C0185 <= 12.78
 0 <= C0186 <= 12.4
 0 <= C0187 <= 11.66
 0 <= C0188 <= 11.54
 0 <= C0189 <= 11.46
 0 <= C0190 <= 11.61
 0 <= C0191 <= 11.13
 0 <= C0192 <= 11.49
 0 <= C0193 <= 12.16
 0 <= C0194 <= 12.68
 0 <= C0195 <= 11.5
 0 <= C0196 <= 11.56
 0 <= C0197 <= 12.62
 0 <= C0198 <= 11.17
 0 <= C0199 <= 11.92
 0 <= C0200 <= 11.92
 0 <= C0201 <= 11.87
 0 <= C0202 <= 11.96
 0 <= C0203 <= 12.11
 0 <= C0204 <= 11.63
 0 <= C0205 <= 12.62
 0 <= C0206 <= 14
 0 <= C0207 <= 12.72
 0 <= C0208 <= 11.6
 0 <= C0209 <= 12.32
 0 <= C0210 <= 12.59
 0 <= C0211 <= 11.52
 0 <= C0212 <= 12.15
 0 <= C0213 <= 12.81
 0 <= C0214 <= 11.62
 0 <= C0215 <= 12.97
 0 <= C0216 <= 11.84
 0 <= C0217 <= 11.05
 0 <= C0218 <= 11.01
 0 <= C0219 <= 12.05
 0 <= C0220 <= 11.82
 0 <= C0221 <= 12.89
 0 <= C0222 <= 11.58
 0 <= C0223 <= 11.15
 0 <= C0224 <= 12.53
 0 <= C0225 <= 11.59
 0 <= C0226 <= 11.44
 0 <= C0227 <= 11.24
 0 <= C0228 <= 14
 0 <= C0229 <= 11.49
 0 <= C0230 <= 11.67
 0 <= C0231 <= 12.73
 0 <= C0232 <= 12.21
 0 <= C0233 <= 12.36
 0 <= C0234 <= 12.54
 0 <= C0235 <= 11.63
 0 <= C0236 <= 11.51
 0 <= C0237 <= 12.99
 0 <= C0238 <= 12.21
 0 <= C0239 <= 11.25
 0 <= C0240 <= 11.52
 0 <= C0241 <= 11.79
 0 <= C0242 <= 11.56
 0 <= C0243 <= 11.04
 0 <= C0244 <= 11.69
 0 <= C0245 <= 12.49
 0 <= C0246 <= 14
 0 <= C0247 <= 12.68
 0 <= C0248 <= 12.74
 0 <= C0249 <= 12.82
 0 <= C0250 <= 11.73
 0 <= C0251 <= 12.89
 0 <= C0252 <= 11.44
 0 <= C0253 <= 11.49
 0 <= C0254 <= 11.23
 0 <= C0255 <= 12.4
 0 <= C0256 <= 11.58
 0 <= C0257 <= 12.05
 0 <= C0258 <= 11.82
 0 <= C0259 <= 11.42
 0 <= C0260 <= 11.35
 0 <= C0261 <= 11.33
 0 <= C0262 <= 11.04
 0 <= C0263 <= 12.85
 0 <= C0264 <= 12.92
 0 <= C0265 <= 11.87
 0 <= C0266 <= 11.73
 0 <= C0267 <= 12.69
 0 <= C0268 <= 11.25
 0 <= C0269 <= 14
 0 <= C0270 <= 12.23
 0 <= C0271 <= 12.36
 0 <= C0272 <= 11.63
 0 <= C0273 <= 12.98
 0 <= C0274 <= 12.57
 0 <= C0275 <= 11.93
 0 <= C0276 <= 11.88
 0 <= C0277 <= 11.44
 0 <= C0278 <= 12.13
 0 <= C0279 <= 11.68
 0 <= C0280 <= 12.26
 0 <= C0281 <= 12.59
 0 <= C0282 <= 12.68
 0 <= C0283 <= 11.56
 0 <= C0284 <= 12.8
 0 <= C0285 <= 12.44
 0 <= C0286 <= 11.94
 0 <= C0287 <= 14
 0 <= C0288 <= 11.29
 0 <= C0289 <= 12.75
 0 <= C0290 <= 12.55
 0 <= C0291 <= 11.31
 0 <= C0292 <= 11.04
 0 <= C0293 <= 11.21
 0 <= C0294 <= 12.81
 0 <= C0295 <= 12.19
 0 <= C0296 <= 12.92
 0 <= C0297 <= 12.55
 0 <= C0298 <= 12.27
 0 <= C0299 <= 12.22
 0 <= C0300 <= 11.78
 0 <= C0301 <= 12.22
 0 <= C0302 <= 12.68
 0 <= C0303 <= 11.68
 0 <= C0304 <= 12
 0 <= C0305 <= 12.35
 0 <= C0306 <= 11.17
 0 <= C0307 <= 12.38
 0 <= C0308 <= 14
 0 <= C0309 <= 12.16
 0 <= C0310 <= 11.78
 0 <= C0311 <= 12.91
 0 <= C0312 <= 11.39
 0 <= C0313 <= 11.46
 0 <= C0314 <= 11.22
 0 <= C0315 <= 11.56
 0 <= C0316 <= 12.22
 0 <= C0317 <= 12.34
 0 <= C0318 <= 11.99
 0 <= C0319 <= 11.48
 0 <= C0320 <= 11.23
 0 <= C0321 <= 12.84
 0 <= C0322 <= 12.47
 0 <= C0323 <= 12.88
 0 <= C0324 <= 11.9
 0 <= C0325 <= 11.13
 0 <= C0326 <= 12.03
 0 <= C0327 <= 12.55
 0 <= C0328 <= 11.57
 0 <= C0329 <= 11.2
 0 <= C0330 <= 11.85
 0 <= C0331 <= 12.8
 0 <= C0332 <= 14
 0 <= C0333 <= 12.43
 0 <= C0334 <= 11.45
 0 <= C0335 <= 12.97
 0 <= C0336 <= 12.28
 0 <= C0337 <= 11.71
 0 <= C0338 <= 12.73
 0 <= C0339 <= 12.31
 0 <= C0340 <= 11.38
 0 <= C0341 <= 12.33
 0 <= C0342 <= 12.98
 0 <= C0343 <= 11.26
 0 <= C0344 <= 12.82
 0 <= C0345 <= 11.73
 0 <= C0346 <= 11.69
 0 <= C0347 <= 12.89
 0 <= C0348 <= 12.77
 0 <= C0349 <= 12.52
 0 <= C0350 <= 12.09
 0 <= C0351 <= 14
 0 <= C0352 <= 11.68
 0 <= C0353 <= 11.35
 0 <= C0354 <= 12.93
 0 <= C0355 <= 12.38
 0 <= C0356 <= 11.37
 0 <= C0357 <= 12.1
 0 <= C0358 <= 11.94
 0 <= C0359 <= 12.17
 0 <= C0360 <= 12.5
 0 <= C0361 <= 11.78
 0 <= C0362 <= 12.54
 0 <= C0363 <= 11.23
 0 <= C0364 <= 12.77
 0 <= C0365 <= 12.39
 0 <= C0366 <= 11.47
 0 <= C0367 <= 11.7
 0 <= C0368 <= 12.45
 0 <= C0369 <= 12
 0 <= C0370 <= 11.89
 0 <= C0371 <= 14
 0 <= C0372 <= 12.59
 0 <= C0373 <= 11.62
 0 <= C0374 <= 12.5
 0 <= C0375 <= 11.32
 0 <= C0376 <= 11.38
 0 <= C0377 <= 12.81
 0 <= C0378 <= 11.46
 0 <= C0379 <= 12.03
 0 <= C0380 <= 12.36
 0 <= C0381 <= 12.65
 0 <= C0382 <= 12.78
 0 <= C0383 <= 12.4
 0 <= C0384 <= 11.66
 0 <= C0385 <= 11.54
 0 <= C0386 <= 14
 C0387 free
 0 <= C0001 <= 1.46
 0 <= C0002 <= 11.61
 0 <= C0003 <= 11.13
 0 <= C0004 <= 11.49
 0 <= C0005 <= 12.16
 0 <= C0006 <= 12.68
 0 <= C0007 <= 11.5
 0 <= C0008 <= 11.56
 0 <= C0009 <= 12.62
 0 <= C0010 <= 11.17
 0 <= C0011 <= 11.92
 0 <= C0012 <= 11.92
 0 <= C0013 <= 11.87
 0 <= C0014 <= 11.96
 0 <= C0015 <= 12.11
 0 <= C0016 <= 11.63
 0 <= C0017 <= 12.62
 0 <= C0018 <= 2.72
 0 <= C0019 <= 11.6
 0 <= C0020 <= 12.32
 0 <= C0021 <= 12.59
 0 <= C0022 <= 11.52
 0 <= C0023 <= 12.15
 0 <= C0024 <= 12.81
 0 <= C0025 <= 11.62
 0 <= C0026 <= 12.97
 0 <= C0027 <= 11.84
 0 <= C0028 <= 11.05
 0 <= C0029 <= 11.01
 0 <= C0030 <= 12.05
 0 <= C0031 <= 11.82
 0 <= C0032 <= 12.89
 0 <= C0033 <= 11.58
 0 <= C0034 <= 11.15
 0 <= C0035 <= 12.53
 0 <= C0036 <= 11.59
 0 <= C0037 <= 11.44
 0 <= C0038 <= 11.24
 0 <= C0039 <= 1.49
 0 <= C0040 <= 11.67
 0 <= C0041 <= 12.73
 0 <= C0042 <= 12.21
 0 <= C0043 <= 12.36
 0 <= C0044 <= 12.54
 0 <= C0045 <= 11.63
 0 <= C0046 <= 11.51
 0 <= C0047 <= 12.99
 0 <= C0048 <= 12.21
 0 <= C0049 <= 11.25
 0 <= C0050 <= 11.52
 0 <= C0051 <= 11.79
 0 <= C0052 <= 11.56
 0 <= C0053 <= 11.04
 0 <= C0054 <= 11.69
 0 <= C0055 <= 12.49
 0 <= C0056 <= 2.68
 0 <= C0057 <= 12.74
 0 <= C0058 <= 12.82
 0 <= C0059 <= 11.73
 0 <= C0060 <= 12.89
 0 <= C0061 <= 11.44
 0 <= C0062 <= 11.49
 0 <= C0063 <= 11.23
 0 <= C0064 <= 12.4
 0 <= C0065 <= 11.58
 0 <= C0066 <= 12.05
 0 <= C0067 <= 11.82
 0 <= C0068 <= 11.42
 0 <= C0069 <= 11.35
 0 <= C0070 <= 11.33
 0 <= C0071 <= 11.04
 0 <= C0072 <= 12.85
 0 <= C0073 <= 12.92
 0 <= C0074 <= 11.87
 0 <= C0075 <= 11.73
 0 <= C0076 <= 12.69
 0 <= C0077 <= 11.25
 0 <= C0078 <= 2.23
 0 <= C0079 <= 12.36
 0 <= C0080 <= 11.63
 0 <= C0081 <= 12.98
 0 <= C0082 <= 12.57
 0 <= C0083 <= 11.93
 0 <= C0084 <= 11.88
 0 <= C0085 <= 11.44
Binaries
 C0471 C0388 C0389 C0390 C0391 C0392 C0393 C0394 C0395 C0396 C0397 C0398 C0399 C0400 C0401 C0402 C0403
 C0404 C0405 C0406 C0407 C0408 C0409 C0410 C0411 C0412 C0413 C0414 C0415 C0416 C0417 C0418 C0419 C0420
 C0421 C0422 C0423 C0424 C0425 C0426 C0427 C0428 C0429 C0430 C0431 C0432 C0433 C0434 C0435 C0436 C0437
 C0438 C0439 C0440 C0441 C0442 C0443 C0444 C0445 C0446 C0447 C0448 C0449 C0450 C0451 C0452 C0453 C0454
 C0455 C0456 C0457 C0458 C0459 C0460 C0461 C0462 C0463 C0464 C0465 C0466 C0467 C0468 C0469 C0470 C0472
End
